c 
c MolecularSimulation 0.9.3
c Simulation written: Jan 13 2012 -- 15:17:57
c Test: Distribution
c Input: ./data/testCNF/SWEEP_R6_K3_N20_M108_S001.cnf
c 
s SATISFIABLE
v -1 2 -3 4 5 6 -7 8 -9 -10 11 -12 13 -14 15 -16 -17 18 19 -20 0
c algorithmTime:  893
c solutionMemory: 46
c mixCount:       321
c extractCount:   0
c appendCount:    14299590
c splitCount:     321
c spliceCount:    6614689
c purifyCount:    107
c 
